(set-logic QF_BV)
(declare-fun p12 () (_ BitVec 8))
(declare-fun p0 () (_ BitVec 8))
(declare-fun p13 () (_ BitVec 8))
(declare-fun p1 () (_ BitVec 8))
(declare-fun p14 () (_ BitVec 8))
(declare-fun p2 () (_ BitVec 8))
(declare-fun p15 () (_ BitVec 8))
(declare-fun p3 () (_ BitVec 8))
(declare-fun p4 () (_ BitVec 8))
(declare-fun p5 () (_ BitVec 8))
(declare-fun p6 () (_ BitVec 8))
(declare-fun p7 () (_ BitVec 8))
(declare-fun p8 () (_ BitVec 8))
(declare-fun p9 () (_ BitVec 8))
(declare-fun p10 () (_ BitVec 8))
(declare-fun p11 () (_ BitVec 8))
(assert (let ((.def_0 (bvnot p13))) (let ((.def_1 (bvlshr p13 #b00000011))) (let ((.def_2 (bvxor p15 .def_1))) (let ((.def_3 (bvnot .def_2))) (let ((.def_4 (bvnot .def_1))) (let ((.def_5 (bvor p15 .def_4))) (let ((.def_6 (bvsub .def_5 .def_3))) (let ((.def_7 (bvadd .def_1 .def_6))) (let ((.def_8 (bvsub #b00000000 .def_7))) (let ((.def_9 (bvmul #b00000010 .def_8))) (let ((.def_10 (bvsub .def_9 .def_0))) (let ((.def_11 (bvnot .def_8))) (let ((.def_12 (bvadd .def_11 .def_10))) (let ((.def_13 (bvnot p5))) (let ((.def_14 (bvmul #b00000101 p4))) (let ((.def_15 (bvnot .def_14))) (let ((.def_16 (bvmul #b00000011 p8))) (let ((.def_17 (bvsub #b00000000 .def_16))) (let ((.def_18 (bvmul #b00000010 .def_17))) (let ((.def_19 (bvsub .def_18 .def_15))) (let ((.def_20 (bvnot .def_17))) (let ((.def_21 (bvadd .def_20 .def_19))) (let ((.def_22 (bvsub #b00000000 .def_21))) (let ((.def_23 (bvmul #b00000010 .def_22))) (let ((.def_24 (bvsub .def_23 .def_13))) (let ((.def_25 (bvnot .def_22))) (let ((.def_26 (bvadd .def_25 .def_24))) (let ((.def_27 (bvxor .def_26 .def_12))) (let ((.def_28 (bvnot .def_27))) (let ((.def_29 (bvnot .def_12))) (let ((.def_30 (bvor .def_26 .def_29))) (let ((.def_31 (bvsub .def_30 .def_28))) (let ((.def_32 (bvadd .def_12 .def_31))) (let ((.def_33 (bvnot p9))) (let ((.def_34 (bvand .def_13 p2))) (let ((.def_35 (bvnot p2))) (let ((.def_36 (bvand p5 .def_35))) (let ((.def_37 (bvadd .def_36 .def_34))) (let ((.def_38 (bvand p5 p2))) (let ((.def_39 (bvmul #b00000010 .def_38))) (let ((.def_40 (bvadd .def_39 .def_37))) (let ((.def_41 (bvnot .def_40))) (let ((.def_42 (bvnot p10))) (let ((.def_43 (bvand p13 .def_42))) (let ((.def_44 (bvnot .def_43))) (let ((.def_45 (bvsub #b00000000 .def_44))) (let ((.def_46 (bvor .def_0 .def_42))) (let ((.def_47 (bvadd .def_46 .def_45))) (let ((.def_48 (bvnot .def_42))) (let ((.def_49 (bvand p13 .def_48))) (let ((.def_50 (bvadd .def_49 .def_47))) (let ((.def_51 (bvsub #b00000000 .def_50))) (let ((.def_52 (bvmul #b00000010 .def_51))) (let ((.def_53 (bvsub .def_52 .def_41))) (let ((.def_54 (bvnot .def_51))) (let ((.def_55 (bvadd .def_54 .def_53))) (let ((.def_56 (bvsub #b00000000 .def_55))) (let ((.def_57 (bvmul #b00000010 .def_56))) (let ((.def_58 (bvsub .def_57 .def_33))) (let ((.def_59 (bvnot .def_56))) (let ((.def_60 (bvadd .def_59 .def_58))) (let ((.def_61 (bvxor .def_60 .def_32))) (let ((.def_62 (bvnot .def_61))) (let ((.def_63 (bvnot .def_32))) (let ((.def_64 (bvor .def_60 .def_63))) (let ((.def_65 (bvsub .def_64 .def_62))) (let ((.def_66 (bvadd .def_32 .def_65))) (let ((.def_67 (bvnot p0))) (let ((.def_68 (bvudiv p12 #b00010011))) (let ((.def_69 (bvudiv p3 .def_68))) (let ((.def_70 (bvnot .def_69))) (let ((.def_71 (bvand .def_70 p5))) (let ((.def_72 (bvand .def_69 .def_13))) (let ((.def_73 (bvadd .def_72 .def_71))) (let ((.def_74 (bvand .def_69 p5))) (let ((.def_75 (bvmul #b00000010 .def_74))) (let ((.def_76 (bvadd .def_75 .def_73))) (let ((.def_77 (bvsub #b00000000 .def_76))) (let ((.def_78 (bvmul #b00000010 .def_77))) (let ((.def_79 (bvsub .def_78 .def_67))) (let ((.def_80 (bvnot .def_77))) (let ((.def_81 (bvadd .def_80 .def_79))) (let ((.def_82 (bvxor .def_81 .def_66))) (let ((.def_83 (bvnot .def_82))) (let ((.def_84 (bvnot .def_66))) (let ((.def_85 (bvor .def_81 .def_84))) (let ((.def_86 (bvsub .def_85 .def_83))) (let ((.def_87 (bvadd .def_66 .def_86))) (let ((.def_88 (bvnot p12))) (let ((.def_89 (bvnot p4))) (let ((.def_90 (bvand .def_89 p14))) (let ((.def_91 (bvnot p14))) (let ((.def_92 (bvand p4 .def_91))) (let ((.def_93 (bvadd .def_92 .def_90))) (let ((.def_94 (bvand p4 p14))) (let ((.def_95 (bvmul #b00000010 .def_94))) (let ((.def_96 (bvadd .def_95 .def_93))) (let ((.def_97 (bvnot .def_96))) (let ((.def_98 (bvudiv p4 #b00000100))) (let ((.def_99 (bvsub #b00000000 .def_98))) (let ((.def_100 (bvmul #b00000010 .def_99))) (let ((.def_101 (bvsub .def_100 .def_97))) (let ((.def_102 (bvnot .def_99))) (let ((.def_103 (bvadd .def_102 .def_101))) (let ((.def_104 (bvsub #b00000000 .def_103))) (let ((.def_105 (bvmul #b00000010 .def_104))) (let ((.def_106 (bvsub .def_105 .def_88))) (let ((.def_107 (bvnot .def_104))) (let ((.def_108 (bvadd .def_107 .def_106))) (let ((.def_109 (bvxor .def_108 .def_87))) (let ((.def_110 (bvnot .def_109))) (let ((.def_111 (bvnot .def_87))) (let ((.def_112 (bvor .def_108 .def_111))) (let ((.def_113 (bvsub .def_112 .def_110))) (let ((.def_114 (bvadd .def_87 .def_113))) (let ((.def_115 (bvxor p3 p4))) (let ((.def_116 (bvnot .def_115))) (let ((.def_117 (bvsub .def_89 .def_116))) (let ((.def_118 (bvadd p4 .def_117))) (let ((.def_119 (bvnot .def_118))) (let ((.def_120 (bvlshr p1 #b00000011))) (let ((.def_121 (bvsub #b00000000 .def_120))) (let ((.def_122 (bvmul #b00000010 .def_121))) (let ((.def_123 (bvsub .def_122 .def_119))) (let ((.def_124 (bvnot .def_121))) (let ((.def_125 (bvadd .def_124 .def_123))) (let ((.def_126 (bvsub #b00000000 .def_125))) (let ((.def_127 (bvmul #b00000010 .def_126))) (let ((.def_128 (bvsub .def_127 .def_91))) (let ((.def_129 (bvnot .def_126))) (let ((.def_130 (bvadd .def_129 .def_128))) (let ((.def_131 (bvxor .def_130 .def_114))) (let ((.def_132 (bvnot .def_131))) (let ((.def_133 (bvnot .def_114))) (let ((.def_134 (bvor .def_130 .def_133))) (let ((.def_135 (bvsub .def_134 .def_132))) (let ((.def_136 (bvadd .def_114 .def_135))) (let ((.def_137 (bvnot p11))) (let ((.def_138 (bvxor p7 p5))) (let ((.def_139 (bvnot .def_138))) (let ((.def_140 (bvsub .def_13 .def_139))) (let ((.def_141 (bvadd p5 .def_140))) (let ((.def_142 (bvxor .def_141 #b00001110))) (let ((.def_143 (bvnot .def_142))) (let ((.def_144 (bvnot #b00001110))) (let ((.def_145 (bvsub .def_144 .def_143))) (let ((.def_146 (bvadd #b00001110 .def_145))) (let ((.def_147 (bvxor p13 .def_146))) (let ((.def_148 (bvnot .def_147))) (let ((.def_149 (bvnot .def_146))) (let ((.def_150 (bvsub .def_149 .def_148))) (let ((.def_151 (bvadd .def_146 .def_150))) (let ((.def_152 (bvsub #b00000000 .def_151))) (let ((.def_153 (bvmul #b00000010 .def_152))) (let ((.def_154 (bvsub .def_153 .def_137))) (let ((.def_155 (bvnot .def_152))) (let ((.def_156 (bvadd .def_155 .def_154))) (let ((.def_157 (bvxor .def_156 .def_136))) (let ((.def_158 (bvnot .def_157))) (let ((.def_159 (bvnot .def_136))) (let ((.def_160 (bvor .def_156 .def_159))) (let ((.def_161 (bvsub .def_160 .def_158))) (let ((.def_162 (bvadd .def_136 .def_161))) (let ((.def_163 (bvnot p7))) (let ((.def_164 (bvand p6 #b00000001))) (let ((.def_165 (bvnot .def_164))) (let ((.def_166 (bvsub #b00000000 .def_165))) (let ((.def_167 (bvnot p6))) (let ((.def_168 (bvor .def_167 #b00000001))) (let ((.def_169 (bvadd .def_168 .def_166))) (let ((.def_170 (bvnot #b00000001))) (let ((.def_171 (bvand p6 .def_170))) (let ((.def_172 (bvadd .def_171 .def_169))) (let ((.def_173 (bvnot p1))) (let ((.def_174 (bvand .def_173 .def_172))) (let ((.def_175 (bvnot .def_172))) (let ((.def_176 (bvand p1 .def_175))) (let ((.def_177 (bvadd .def_176 .def_174))) (let ((.def_178 (bvand p1 .def_172))) (let ((.def_179 (bvmul #b00000010 .def_178))) (let ((.def_180 (bvadd .def_179 .def_177))) (let ((.def_181 (bvand p7 #b00000001))) (let ((.def_182 (bvnot .def_181))) (let ((.def_183 (bvsub #b00000000 .def_182))) (let ((.def_184 (bvor .def_163 #b00000001))) (let ((.def_185 (bvadd .def_184 .def_183))) (let ((.def_186 (bvand p7 .def_170))) (let ((.def_187 (bvadd .def_186 .def_185))) (let ((.def_188 (bvlshr p2 .def_187))) (let ((.def_189 (bvxor .def_188 .def_180))) (let ((.def_190 (bvnot .def_189))) (let ((.def_191 (bvnot .def_180))) (let ((.def_192 (bvor .def_188 .def_191))) (let ((.def_193 (bvsub .def_192 .def_190))) (let ((.def_194 (bvadd .def_180 .def_193))) (let ((.def_195 (bvsub #b00000000 .def_194))) (let ((.def_196 (bvmul #b00000010 .def_195))) (let ((.def_197 (bvsub .def_196 .def_163))) (let ((.def_198 (bvnot .def_195))) (let ((.def_199 (bvadd .def_198 .def_197))) (let ((.def_200 (bvxor .def_199 .def_162))) (let ((.def_201 (bvnot .def_200))) (let ((.def_202 (bvnot .def_162))) (let ((.def_203 (bvor .def_199 .def_202))) (let ((.def_204 (bvsub .def_203 .def_201))) (let ((.def_205 (bvadd .def_162 .def_204))) (let ((.def_206 (bvnot p15))) (let ((.def_207 (bvxor p14 p13))) (let ((.def_208 (bvnot .def_207))) (let ((.def_209 (bvsub .def_0 .def_208))) (let ((.def_210 (bvadd p13 .def_209))) (let ((.def_211 (bvshl .def_210 #b00000001))) (let ((.def_212 (bvxor .def_211 #b00001011))) (let ((.def_213 (bvnot .def_212))) (let ((.def_214 (bvnot #b00001011))) (let ((.def_215 (bvsub .def_214 .def_213))) (let ((.def_216 (bvadd #b00001011 .def_215))) (let ((.def_217 (bvsub #b00000000 .def_216))) (let ((.def_218 (bvmul #b00000010 .def_217))) (let ((.def_219 (bvsub .def_218 .def_206))) (let ((.def_220 (bvnot .def_217))) (let ((.def_221 (bvadd .def_220 .def_219))) (let ((.def_222 (bvxor .def_221 .def_205))) (let ((.def_223 (bvnot .def_222))) (let ((.def_224 (bvnot .def_205))) (let ((.def_225 (bvor .def_221 .def_224))) (let ((.def_226 (bvsub .def_225 .def_223))) (let ((.def_227 (bvadd .def_205 .def_226))) (let ((.def_228 (bvsub #b00000000 p12))) (let ((.def_229 (bvmul #b00000010 .def_228))) (let ((.def_230 (bvsub .def_229 .def_167))) (let ((.def_231 (bvnot .def_228))) (let ((.def_232 (bvadd .def_231 .def_230))) (let ((.def_233 (bvxor p12 .def_232))) (let ((.def_234 (bvnot .def_233))) (let ((.def_235 (bvnot .def_232))) (let ((.def_236 (bvsub .def_235 .def_234))) (let ((.def_237 (bvadd .def_232 .def_236))) (let ((.def_238 (bvsub #b00000000 .def_237))) (let ((.def_239 (bvmul #b00000010 .def_238))) (let ((.def_240 (bvsub .def_239 .def_167))) (let ((.def_241 (bvnot .def_238))) (let ((.def_242 (bvadd .def_241 .def_240))) (let ((.def_243 (bvxor .def_242 .def_227))) (let ((.def_244 (bvnot .def_243))) (let ((.def_245 (bvnot .def_227))) (let ((.def_246 (bvor .def_242 .def_245))) (let ((.def_247 (bvsub .def_246 .def_244))) (let ((.def_248 (bvadd .def_227 .def_247))) (let ((.def_249 (bvlshr p1 #b00000010))) (let ((.def_250 (bvlshr p14 #b00000010))) (let ((.def_251 (bvxor .def_250 .def_249))) (let ((.def_252 (bvnot .def_251))) (let ((.def_253 (bvnot .def_249))) (let ((.def_254 (bvsub .def_253 .def_252))) (let ((.def_255 (bvadd .def_249 .def_254))) (let ((.def_256 (bvshl #b00000001 .def_255))) (let ((.def_257 (bvsub #b00000000 .def_256))) (let ((.def_258 (bvmul #b00000010 .def_257))) (let ((.def_259 (bvsub .def_258 .def_173))) (let ((.def_260 (bvnot .def_257))) (let ((.def_261 (bvadd .def_260 .def_259))) (let ((.def_262 (bvxor .def_261 .def_248))) (let ((.def_263 (bvnot .def_262))) (let ((.def_264 (bvnot .def_248))) (let ((.def_265 (bvor .def_261 .def_264))) (let ((.def_266 (bvsub .def_265 .def_263))) (let ((.def_267 (bvadd .def_248 .def_266))) (let ((.def_268 (bvnot p8))) (let ((.def_269 (bvnot p3))) (let ((.def_270 (bvsub #b00000000 p1))) (let ((.def_271 (bvmul #b00000010 .def_270))) (let ((.def_272 (bvsub .def_271 .def_269))) (let ((.def_273 (bvnot .def_270))) (let ((.def_274 (bvadd .def_273 .def_272))) (let ((.def_275 (bvnot .def_274))) (let ((.def_276 (bvand .def_275 p4))) (let ((.def_277 (bvand .def_274 .def_89))) (let ((.def_278 (bvadd .def_277 .def_276))) (let ((.def_279 (bvand .def_274 p4))) (let ((.def_280 (bvmul #b00000010 .def_279))) (let ((.def_281 (bvadd .def_280 .def_278))) (let ((.def_282 (bvsub #b00000000 .def_281))) (let ((.def_283 (bvmul #b00000010 .def_282))) (let ((.def_284 (bvsub .def_283 .def_268))) (let ((.def_285 (bvnot .def_282))) (let ((.def_286 (bvadd .def_285 .def_284))) (let ((.def_287 (bvxor .def_286 .def_267))) (let ((.def_288 (bvnot .def_287))) (let ((.def_289 (bvnot .def_267))) (let ((.def_290 (bvor .def_286 .def_289))) (let ((.def_291 (bvsub .def_290 .def_288))) (let ((.def_292 (bvadd .def_267 .def_291))) (let ((.def_293 (bvxor p0 p9))) (let ((.def_294 (bvnot .def_293))) (let ((.def_295 (bvsub .def_33 .def_294))) (let ((.def_296 (bvadd p9 .def_295))) (let ((.def_297 (bvlshr .def_296 #b00000001))) (let ((.def_298 (bvshl .def_297 #b00000001))) (let ((.def_299 (bvsub #b00000000 .def_298))) (let ((.def_300 (bvmul #b00000010 .def_299))) (let ((.def_301 (bvsub .def_300 .def_269))) (let ((.def_302 (bvnot .def_299))) (let ((.def_303 (bvadd .def_302 .def_301))) (let ((.def_304 (bvxor .def_303 .def_292))) (let ((.def_305 (bvnot .def_304))) (let ((.def_306 (bvnot .def_292))) (let ((.def_307 (bvor .def_303 .def_306))) (let ((.def_308 (bvsub .def_307 .def_305))) (let ((.def_309 (bvadd .def_292 .def_308))) (let ((.def_310 (bvsub #b00000000 p10))) (let ((.def_311 (bvmul #b00000010 .def_310))) (let ((.def_312 (bvsub .def_311 .def_33))) (let ((.def_313 (bvnot .def_310))) (let ((.def_314 (bvadd .def_313 .def_312))) (let ((.def_315 (bvshl .def_314 #b00000011))) (let ((.def_316 (bvsub #b00000000 .def_315))) (let ((.def_317 (bvmul #b00000010 .def_316))) (let ((.def_318 (bvsub .def_317 .def_89))) (let ((.def_319 (bvnot .def_316))) (let ((.def_320 (bvadd .def_319 .def_318))) (let ((.def_321 (bvxor .def_320 .def_309))) (let ((.def_322 (bvnot .def_321))) (let ((.def_323 (bvnot .def_309))) (let ((.def_324 (bvor .def_320 .def_323))) (let ((.def_325 (bvsub .def_324 .def_322))) (let ((.def_326 (bvadd .def_309 .def_325))) (let ((.def_327 (bvand p6 #b00000111))) (let ((.def_328 (bvnot .def_327))) (let ((.def_329 (bvsub #b00000000 .def_328))) (let ((.def_330 (bvor .def_167 #b00000111))) (let ((.def_331 (bvadd .def_330 .def_329))) (let ((.def_332 (bvnot #b00000111))) (let ((.def_333 (bvand p6 .def_332))) (let ((.def_334 (bvadd .def_333 .def_331))) (let ((.def_335 (bvxor .def_42 #b00000001))) (let ((.def_336 (bvnot .def_335))) (let ((.def_337 (bvsub .def_170 .def_336))) (let ((.def_338 (bvadd #b00000001 .def_337))) (let ((.def_339 (bvshl .def_338 .def_334))) (let ((.def_340 (bvsub #b00000000 .def_339))) (let ((.def_341 (bvmul #b00000010 .def_340))) (let ((.def_342 (bvsub .def_341 .def_42))) (let ((.def_343 (bvnot .def_340))) (let ((.def_344 (bvadd .def_343 .def_342))) (let ((.def_345 (bvxor .def_344 .def_326))) (let ((.def_346 (bvnot .def_345))) (let ((.def_347 (bvnot .def_326))) (let ((.def_348 (bvor .def_344 .def_347))) (let ((.def_349 (bvsub .def_348 .def_346))) (let ((.def_350 (bvadd .def_326 .def_349))) (let ((.def_351 (bvxor p4 p12))) (let ((.def_352 (bvnot .def_351))) (let ((.def_353 (bvsub .def_88 .def_352))) (let ((.def_354 (bvadd p12 .def_353))) (let ((.def_355 (bvsub #b00000000 .def_354))) (let ((.def_356 (bvmul #b00000010 .def_355))) (let ((.def_357 (bvsub .def_356 .def_35))) (let ((.def_358 (bvnot .def_355))) (let ((.def_359 (bvadd .def_358 .def_357))) (let ((.def_360 (bvxor .def_359 .def_350))) (let ((.def_361 (bvnot .def_360))) (let ((.def_362 (bvnot .def_350))) (let ((.def_363 (bvor .def_359 .def_362))) (let ((.def_364 (bvsub .def_363 .def_361))) (let ((.def_365 (bvadd .def_350 .def_364))) (let ((.def_366 (= #b00000000 .def_365))) (let ((.def_367 (bvult p15 #b01111111))) (let ((.def_368 (bvule #b00010100 p15))) (let ((.def_369 (bvult p14 #b01111111))) (let ((.def_370 (bvule #b00010100 p14))) (let ((.def_371 (bvult p13 #b01111111))) (let ((.def_372 (bvule #b00010100 p13))) (let ((.def_373 (bvult p12 #b01111111))) (let ((.def_374 (bvule #b00010100 p12))) (let ((.def_375 (bvult p11 #b01111111))) (let ((.def_376 (bvule #b00010100 p11))) (let ((.def_377 (bvult p10 #b01111111))) (let ((.def_378 (bvule #b00010100 p10))) (let ((.def_379 (bvult p9 #b01111111))) (let ((.def_380 (bvule #b00010100 p9))) (let ((.def_381 (bvult p8 #b01111111))) (let ((.def_382 (bvule #b00010100 p8))) (let ((.def_383 (bvult p7 #b01111111))) (let ((.def_384 (bvule #b00010100 p7))) (let ((.def_385 (bvult p6 #b01111111))) (let ((.def_386 (bvule #b00010100 p6))) (let ((.def_387 (bvult p5 #b01111111))) (let ((.def_388 (bvule #b00010100 p5))) (let ((.def_389 (bvult p4 #b01111111))) (let ((.def_390 (bvule #b00010100 p4))) (let ((.def_391 (bvult p3 #b01111111))) (let ((.def_392 (bvule #b00010100 p3))) (let ((.def_393 (bvult p2 #b01111111))) (let ((.def_394 (bvule #b00010100 p2))) (let ((.def_395 (bvult p1 #b01111111))) (let ((.def_396 (bvule #b00010100 p1))) (let ((.def_397 (bvult p0 #b01111111))) (let ((.def_398 (bvule #b00010100 p0))) (let ((.def_399 (and true .def_398))) (let ((.def_400 (and .def_399 .def_397))) (let ((.def_401 (and .def_400 .def_396))) (let ((.def_402 (and .def_401 .def_395))) (let ((.def_403 (and .def_402 .def_394))) (let ((.def_404 (and .def_403 .def_393))) (let ((.def_405 (and .def_404 .def_392))) (let ((.def_406 (and .def_405 .def_391))) (let ((.def_407 (and .def_406 .def_390))) (let ((.def_408 (and .def_407 .def_389))) (let ((.def_409 (and .def_408 .def_388))) (let ((.def_410 (and .def_409 .def_387))) (let ((.def_411 (and .def_410 .def_386))) (let ((.def_412 (and .def_411 .def_385))) (let ((.def_413 (and .def_412 .def_384))) (let ((.def_414 (and .def_413 .def_383))) (let ((.def_415 (and .def_414 .def_382))) (let ((.def_416 (and .def_415 .def_381))) (let ((.def_417 (and .def_416 .def_380))) (let ((.def_418 (and .def_417 .def_379))) (let ((.def_419 (and .def_418 .def_378))) (let ((.def_420 (and .def_419 .def_377))) (let ((.def_421 (and .def_420 .def_376))) (let ((.def_422 (and .def_421 .def_375))) (let ((.def_423 (and .def_422 .def_374))) (let ((.def_424 (and .def_423 .def_373))) (let ((.def_425 (and .def_424 .def_372))) (let ((.def_426 (and .def_425 .def_371))) (let ((.def_427 (and .def_426 .def_370))) (let ((.def_428 (and .def_427 .def_369))) (let ((.def_429 (and .def_428 .def_368))) (let ((.def_430 (and .def_429 .def_367))) (let ((.def_431 (and .def_430 .def_366))) .def_431)))))))))))))))))))))))))))))))))))))))))))))))))))))))))))))))))))))))))))))))))))))))))))))))))))))))))))))))))))))))))))))))))))))))))))))))))))))))))))))))))))))))))))))))))))))))))))))))))))))))))))))))))))))))))))))))))))))))))))))))))))))))))))))))))))))))))))))))))))))))))))))))))))))))))))))))))))))))))))))))))))))))))))))))))))))))))))))))))))))))))))))))))))))))))))))))))))))))))))))))))))))))))))))))))))))))))))))))))
(check-sat)
